80
1266
4
20
39
4
95
0 3
0 7
0 8
0 11
0 14
0 18
0 20
0 24
0 34
0 39
0 42
0 44
0 45
0 47
0 50
0 54
0 56
0 60
0 64
0 67
0 68
0 76
0 77
0 78
1 2
1 4
1 7
1 11
1 12
1 14
1 15
1 17
1 20
1 23
1 29
1 32
1 35
1 36
1 37
1 40
1 41
1 42
1 43
1 44
1 45
1 50
1 51
1 55
1 56
1 58
1 64
1 65
1 68
1 72
1 73
1 74
1 75
1 77
2 7
2 9
2 11
2 12
2 13
2 15
2 18
2 23
2 25
2 26
2 28
2 31
2 32
2 34
2 36
2 37
2 39
2 41
2 42
2 47
2 50
2 52
2 54
2 57
2 58
2 59
2 60
2 61
2 71
2 74
2 76
2 77
2 79
3 4
3 10
3 12
3 13
3 19
3 22
3 26
3 37
3 42
3 44
3 46
3 48
3 50
3 52
3 53
3 54
3 55
3 57
3 58
3 59
3 62
3 63
3 64
3 66
3 69
3 71
3 72
3 73
3 74
3 78
4 6
4 22
4 23
4 26
4 28
4 35
4 38
4 40
4 41
4 43
4 48
4 52
4 55
4 56
4 59
4 60
4 62
4 63
4 64
4 65
4 68
4 72
4 73
4 75
4 76
4 77
5 6
5 8
5 12
5 13
5 14
5 16
5 23
5 25
5 26
5 29
5 32
5 38
5 39
5 40
5 41
5 43
5 46
5 48
5 50
5 52
5 55
5 58
5 59
5 61
5 62
5 65
5 66
5 67
5 68
5 71
5 74
5 76
5 79
6 8
6 10
6 11
6 12
6 15
6 18
6 20
6 23
6 25
6 26
6 28
6 29
6 31
6 32
6 33
6 36
6 41
6 47
6 48
6 50
6 51
6 53
6 54
6 57
6 62
6 65
6 66
6 68
6 74
7 10
7 12
7 13
7 17
7 18
7 23
7 24
7 27
7 29
7 30
7 31
7 33
7 34
7 38
7 40
7 43
7 48
7 56
7 59
7 60
7 61
7 62
7 63
7 69
7 70
7 71
7 72
7 73
7 74
7 76
7 77
7 79
8 10
8 12
8 16
8 18
8 22
8 26
8 28
8 29
8 30
8 31
8 34
8 35
8 36
8 42
8 47
8 48
8 50
8 51
8 52
8 53
8 58
8 60
8 63
8 68
8 69
8 75
8 79
9 12
9 14
9 19
9 20
9 23
9 28
9 32
9 36
9 38
9 40
9 43
9 44
9 45
9 55
9 57
9 58
9 59
9 60
9 62
9 63
9 65
9 66
9 72
10 12
10 13
10 16
10 18
10 22
10 23
10 26
10 31
10 33
10 34
10 37
10 43
10 44
10 45
10 46
10 51
10 52
10 58
10 59
10 60
10 64
10 66
10 68
10 70
10 74
10 78
10 79
11 12
11 13
11 14
11 15
11 17
11 19
11 27
11 36
11 38
11 40
11 41
11 43
11 46
11 48
11 50
11 60
11 61
11 62
11 64
11 65
11 74
11 76
11 78
12 13
12 15
12 18
12 22
12 24
12 25
12 26
12 31
12 32
12 40
12 41
12 42
12 44
12 49
12 52
12 53
12 55
12 57
12 58
12 65
12 66
12 67
12 68
12 69
12 72
12 73
12 75
12 77
13 14
13 15
13 22
13 30
13 33
13 34
13 35
13 36
13 39
13 40
13 45
13 46
13 51
13 53
13 54
13 58
13 63
13 66
13 67
13 68
13 69
13 71
13 72
13 74
13 78
14 16
14 17
14 19
14 25
14 26
14 27
14 29
14 32
14 34
14 40
14 41
14 42
14 45
14 47
14 54
14 58
14 59
14 60
14 61
14 67
14 68
14 71
14 72
14 77
15 17
15 19
15 22
15 24
15 27
15 28
15 30
15 31
15 33
15 34
15 38
15 40
15 41
15 42
15 43
15 48
15 49
15 50
15 51
15 53
15 56
15 61
15 64
15 65
15 67
15 68
15 69
15 70
15 71
15 73
15 75
15 79
16 17
16 18
16 20
16 21
16 27
16 29
16 30
16 34
16 35
16 37
16 40
16 41
16 44
16 46
16 49
16 50
16 60
16 64
16 65
16 66
16 67
16 68
16 75
16 78
17 20
17 22
17 23
17 26
17 27
17 29
17 31
17 32
17 35
17 38
17 39
17 42
17 43
17 47
17 49
17 52
17 53
17 58
17 61
17 63
17 66
17 68
17 69
17 70
17 71
17 73
17 74
17 75
17 76
18 20
18 24
18 26
18 35
18 41
18 45
18 47
18 49
18 53
18 62
18 64
18 65
18 67
18 68
18 71
18 72
18 73
18 75
18 77
18 78
19 21
19 23
19 27
19 30
19 32
19 35
19 40
19 41
19 43
19 46
19 48
19 49
19 55
19 59
19 60
19 61
19 67
19 68
19 69
19 72
19 73
20 22
20 25
20 29
20 32
20 33
20 38
20 39
20 40
20 42
20 43
20 44
20 46
20 47
20 49
20 54
20 56
20 59
20 60
20 62
20 65
20 71
20 73
20 74
20 76
21 26
21 30
21 35
21 37
21 39
21 41
21 43
21 49
21 50
21 53
21 56
21 59
21 61
21 62
21 65
21 66
21 67
21 71
21 74
21 75
21 79
22 27
22 28
22 36
22 40
22 41
22 42
22 43
22 44
22 46
22 47
22 51
22 58
22 60
22 61
22 62
22 63
22 66
22 68
22 69
22 75
22 79
23 35
23 41
23 49
23 54
23 58
23 59
23 61
23 62
23 66
23 74
23 79
24 26
24 27
24 30
24 31
24 32
24 37
24 40
24 42
24 43
24 46
24 50
24 51
24 52
24 53
24 54
24 55
24 56
24 60
24 61
24 62
24 65
24 66
24 67
24 68
24 69
24 70
24 73
25 26
25 29
25 30
25 31
25 32
25 36
25 39
25 40
25 41
25 42
25 43
25 46
25 53
25 59
25 60
25 64
25 70
25 71
25 72
25 75
25 78
25 79
26 28
26 29
26 32
26 33
26 34
26 40
26 41
26 42
26 43
26 44
26 45
26 49
26 52
26 56
26 58
26 59
26 70
26 75
26 76
26 79
27 28
27 30
27 32
27 35
27 36
27 38
27 39
27 40
27 42
27 48
27 59
27 60
27 61
27 64
27 67
27 69
27 71
27 74
27 77
27 78
28 30
28 33
28 36
28 38
28 40
28 41
28 45
28 46
28 50
28 55
28 56
28 60
28 61
28 62
28 63
28 64
28 67
28 68
28 74
28 78
29 34
29 37
29 41
29 43
29 44
29 48
29 49
29 50
29 51
29 53
29 56
29 59
29 60
29 61
29 63
29 68
29 75
29 76
29 77
29 79
30 31
30 32
30 34
30 36
30 41
30 43
30 45
30 46
30 47
30 49
30 51
30 57
30 58
30 60
30 61
30 63
30 64
30 68
30 70
30 72
30 76
31 32
31 33
31 38
31 40
31 42
31 45
31 48
31 50
31 52
31 55
31 56
31 58
31 60
31 62
31 70
31 72
31 73
31 79
32 33
32 35
32 37
32 39
32 44
32 46
32 49
32 52
32 54
32 57
32 58
32 62
32 63
32 67
32 68
32 72
32 75
32 76
32 79
33 35
33 37
33 38
33 39
33 40
33 42
33 43
33 45
33 49
33 53
33 54
33 55
33 56
33 58
33 59
33 60
33 61
33 62
33 64
33 66
33 68
33 75
34 35
34 38
34 39
34 40
34 42
34 43
34 48
34 49
34 51
34 56
34 58
34 59
34 60
34 61
34 64
34 65
34 68
34 69
34 71
34 73
34 74
34 75
34 77
35 36
35 41
35 46
35 48
35 51
35 53
35 55
35 56
35 58
35 60
35 64
35 65
35 66
35 67
35 68
35 69
35 72
35 73
35 74
35 75
35 77
36 37
36 39
36 41
36 44
36 46
36 53
36 56
36 57
36 58
36 59
36 61
36 64
36 66
36 68
36 74
36 76
36 78
36 79
37 38
37 39
37 41
37 44
37 45
37 46
37 48
37 50
37 51
37 53
37 54
37 55
37 56
37 60
37 63
37 64
37 69
37 74
37 76
37 77
38 39
38 41
38 42
38 45
38 48
38 50
38 53
38 55
38 56
38 61
38 64
38 65
38 67
38 70
38 71
38 72
38 73
38 76
38 78
39 42
39 43
39 45
39 48
39 52
39 53
39 56
39 58
39 61
39 62
39 63
39 65
39 67
39 68
39 70
39 72
39 74
39 75
39 77
40 41
40 42
40 43
40 44
40 45
40 46
40 47
40 48
40 49
40 50
40 52
40 57
40 59
40 60
40 66
40 67
40 70
40 71
40 72
40 73
40 75
40 77
41 43
41 46
41 47
41 53
41 59
41 60
41 64
41 66
41 67
41 68
41 70
41 71
41 74
41 76
41 77
41 78
41 79
42 44
42 51
42 58
42 59
42 61
42 62
42 64
42 66
42 67
42 68
42 70
42 71
42 73
42 75
42 76
42 79
43 47
43 48
43 49
43 51
43 52
43 55
43 58
43 61
43 62
43 63
43 68
43 70
43 75
43 76
43 78
44 45
44 47
44 50
44 54
44 58
44 61
44 63
44 64
44 65
44 66
44 69
44 71
44 72
44 75
44 76
44 78
44 79
45 47
45 48
45 53
45 56
45 59
45 61
45 63
45 69
45 70
45 75
45 77
45 79
46 48
46 49
46 51
46 52
46 53
46 55
46 56
46 59
46 60
46 65
46 66
46 68
46 72
46 75
46 77
46 78
47 49
47 50
47 56
47 57
47 58
47 63
47 68
47 71
47 77
47 78
48 50
48 51
48 57
48 60
48 68
48 69
48 74
48 78
49 54
49 55
49 57
49 63
49 64
49 65
49 66
49 67
49 68
49 72
49 76
49 79
50 59
50 60
50 61
50 68
50 69
50 72
50 75
50 76
51 53
51 59
51 62
51 64
51 65
51 68
51 70
51 71
51 74
51 79
52 57
52 62
52 63
52 64
52 67
52 72
52 77
53 56
53 59
53 60
53 63
53 64
53 65
53 66
53 68
53 70
53 72
53 73
53 76
53 79
54 55
54 58
54 59
54 61
54 62
54 63
54 69
54 70
54 71
54 72
54 73
55 56
55 57
55 63
55 69
55 70
55 73
55 74
55 76
55 79
56 58
56 64
56 66
56 68
56 70
56 79
57 58
57 59
57 61
57 64
57 65
57 67
57 68
57 70
57 72
57 74
57 75
58 62
58 63
58 65
58 67
58 68
58 69
58 71
58 73
58 77
59 62
59 65
59 67
59 70
59 71
59 73
59 75
59 78
60 65
60 70
60 74
60 77
60 78
60 79
61 63
61 67
61 68
61 70
61 72
61 74
61 76
62 63
62 64
62 65
62 70
62 72
62 79
63 65
63 66
63 69
63 71
63 77
63 79
64 65
64 67
64 68
64 76
64 77
64 78
64 79
65 67
65 68
65 69
65 71
65 74
65 75
65 76
65 79
66 67
66 70
66 73
66 74
66 75
66 77
67 69
67 71
67 74
67 76
67 78
68 69
68 70
68 72
68 73
68 75
68 77
68 79
69 71
69 74
69 76
69 77
70 71
70 78
70 79
71 72
71 75
71 77
72 74
72 76
72 78
74 77
74 78
74 79
75 76
75 77
75 79
76 77
77 79
63 20 28 37 65 32 17 25 64 29 54 7 66 31 71 56 12 26 10 60 50 34 0 69
14 21 51 47 13 6 38 55 24 76 18 23 40 53 4 43 42 45 35 77 58 30 49 59
3 62 48 61 67 15 1 5 11 46 68 9 2 27 73 36 19 79 33 41 8 22 78 52
16 39 57 44 75 74 70 72
